6918
42,9,28,6,37,2,19,99,114,102,70,137,132,85,142,18,75,65,141,58,55,50,135,108,86,29,81,110,47,25,20,51,109,134,138,54,46,90,83,56,26,146,92,33,126,93,124,35,96,89,8,30,84,7,97,143,100,5,107,95,82,103,98,1,34,87,76,73,48,63,10,113,3,62,149,125,22,104,4,45,128,68,119,91,106,13,74,123,31,27,129,144,147,49,72,145,136,112,64,44,71,115,150,21,88,94,121,52,105,111,133,16,59,79,78,15,80,14,122,77,131,32,23,38,67,43,116,101,39,57,41,117,140,60,66,17,130,148,11,61,36,69,127,118,24,12,53,40,139,120,42
